c An instance of conditional planning (by rintanen@informatik.uni-freiburg.de)
p cnf 18  39 
e 4 5 6 7 8 9 0
r 0.5 12 13 0
e 1 2 3 10 11 14 15 16 17 18 0
-13 12 14 0
-13 -15 12 0
-14 12 13 0
12 13 15 0
-12 13 14 0
-12 13 15 0
-16 0
-17 0
-18 0
-4 -18 0
-4 -16 0
-6 -17 0
-6 -18 0
-7 18 0
-4 2 0
-4 -10 0
-4 1 0
-6 3 0
-6 -11 0
-6 2 0
-2 -7 0
-1 4 16 0
-16 1 0
-2 4 6 18 0
-18 2 7 0
-10 15 0
-15 4 10 0
-3 6 17 0
-17 3 0
-11 14 0
-14 6 11 0
-4 -6 0
-5 -8 0
-4 -7 0
-5 -9 0
-6 -7 0
-8 -9 0
-10 0
-11 0
